
c turning on binary mode checking

c parsing input formula with 31 variables and 1860 clauses

c finished parsing, read 890 bytes from proof file

c detected empty clause; start verification via backward checking

c 267 of 1860 clauses in core                            

c 103 of 113 lemmas in core using 1337 resolution steps

c 0 RAT lemmas in core; 2 redundant literals in core lemmas

s VERIFIED

c verification time: 0.059 seconds
